(set-logic HORN)
(declare-fun state (Int (Array Int Int) (Array Int Int) (Array Int Int) (Array Int Int) Int Int (Array Int Int) (Array Int Int) Int Int Int Int Int Int Int Int Int Int Int Int Bool Bool Bool Bool Bool Bool (Array Int Int)) Bool)
(assert (forall ((|A_28| Int) (|B_28| (Array Int Int)) (|C_28| (Array Int Int)) (|D_28| (Array Int Int)) (|E_28| (Array Int Int)) (|F_28| Int) (|G_28| Int) (|H_28| (Array Int Int)) (|I_28| (Array Int Int)) (|J_28| Int) (|K_28| Int) (|L_28| Int) (|M_28| Int) (|N_28| Int) (|O_28| Int) (|P_28| Int) (|Q_28| Int) (|R_28| Int) (|S_28| Int) (|T_28| Int) (|U_28| Int) (|W_14| Bool) (|.loc.6| Bool) (|.loc.7| Bool) (|.loc.8| Bool) (|.loc.9| Bool) (|.loc.10| Bool) (|W_0| (Array Int Int)) (|.x.614| Int) (|.x.612| (Array Int Int)) (|.x.610| Int) (|.x.608| (Array Int Int)) (|.x.604| Int) (|.x.606| (Array Int Int)) (|.x.605| (Array Int Int)) (|V_28| Bool) (|.x.615| Int) (|.x.616| Int) (|.x.617| Int) (|.x.619| Int) (|.loc.15| Bool) (|.loc.12| Bool) (|.loc.13| Bool) (|.loc.14| Bool) (|.x.620| Int) (|.x.618| Int) (|.x.623| Int) (|.loc.11| Bool) (|.x.624| Int) (|.x.622| Int) (|.x.621| Int) (|.x.607| (Array Int Int)) (|.x.613| Int) (|.x.609| Int) (|.x.611| (Array Int Int)) (|.xtv.1| (Array Int Int))) (=> (and (and (and (and (and .loc.6 (not .loc.7)) (not .loc.8)) (not .loc.9)) (not .loc.10)) (and (and (and (and (and (= D_28 E_28) (not W_14)) (= F_28 G_28)) (= J_28 K_28)) (= H_28 I_28)) (= B_28 C_28))) (state |A_28| |B_28| |C_28| |D_28| |E_28| |F_28| |G_28| |H_28| |I_28| |J_28| |K_28| |L_28| |M_28| |N_28| |O_28| |P_28| |Q_28| |R_28| |S_28| |T_28| |U_28| |W_14| |.loc.6| |.loc.7| |.loc.8| |.loc.9| |.loc.10| |W_0|))))
(assert (forall ((|A_28| Int) (|B_28| (Array Int Int)) (|C_28| (Array Int Int)) (|D_28| (Array Int Int)) (|E_28| (Array Int Int)) (|F_28| Int) (|G_28| Int) (|H_28| (Array Int Int)) (|I_28| (Array Int Int)) (|J_28| Int) (|K_28| Int) (|L_28| Int) (|M_28| Int) (|N_28| Int) (|O_28| Int) (|P_28| Int) (|Q_28| Int) (|R_28| Int) (|S_28| Int) (|T_28| Int) (|U_28| Int) (|W_14| Bool) (|.loc.6| Bool) (|.loc.7| Bool) (|.loc.8| Bool) (|.loc.9| Bool) (|.loc.10| Bool) (|W_0| (Array Int Int)) (|.x.614| Int) (|.x.612| (Array Int Int)) (|.x.610| Int) (|.x.608| (Array Int Int)) (|.x.604| Int) (|.x.606| (Array Int Int)) (|.x.605| (Array Int Int)) (|V_28| Bool) (|.x.615| Int) (|.x.616| Int) (|.x.617| Int) (|.x.619| Int) (|.loc.15| Bool) (|.loc.12| Bool) (|.loc.13| Bool) (|.loc.14| Bool) (|.x.620| Int) (|.x.618| Int) (|.x.623| Int) (|.loc.11| Bool) (|.x.624| Int) (|.x.622| Int) (|.x.621| Int) (|.x.607| (Array Int Int)) (|.x.613| Int) (|.x.609| Int) (|.x.611| (Array Int Int)) (|.xtv.1| (Array Int Int))) (=> (and (state |A_28| |B_28| |C_28| |D_28| |E_28| |F_28| |G_28| |H_28| |I_28| |J_28| |K_28| |L_28| |M_28| |N_28| |O_28| |P_28| |Q_28| |R_28| |S_28| |T_28| |U_28| |W_14| |.loc.6| |.loc.7| |.loc.8| |.loc.9| |.loc.10| |W_0|) (let ((.def_38 (not .loc.7))) (let ((.def_40 (not .loc.8))) (let ((.def_42 (not .loc.9))) (let ((.def_77 (= B_28 .x.605))) (let ((.def_81 (= L_28 .x.615))) (let ((.def_84 (= M_28 .x.616))) (let ((.def_87 (= N_28 .x.617))) (let ((.def_90 (= P_28 .x.619))) (let ((.def_92 (not .loc.6))) (let ((.def_103 (= W_14 V_28))) (let ((.def_110 (not .loc.12))) (let ((.def_113 (not .loc.13))) (let ((.def_116 (not .loc.14))) (let ((.def_119 (= O_28 0))) (let ((.def_123 (and .def_87 (and .def_84 (and .def_77 .def_81))))) (let ((.def_124 (and .def_90 .def_123))) (let ((.def_130 (not .loc.15))) (let ((.def_136 (= Q_28 .x.620))) (let ((.def_138 (= O_28 .x.618))) (let ((.def_141 (= T_28 .x.623))) (let ((.def_144 (not .loc.11))) (let ((.def_151 (select D_28 N_28))) (let ((.def_155 (<= 100000 U_28))) (let ((.def_177 (= U_28 .x.624))) (let ((.def_179 (= S_28 .x.622))) (let ((.def_190 (and .def_90 (and .def_123 .def_138)))) (let ((.def_208 (and .def_141 (and .def_179 (and .def_136 .def_190))))) (let ((.def_221 (and W_14 .def_77))) (let ((.def_230 (and .def_177 (and .def_141 (and .def_179 (and .def_136 (and .def_90 (and .def_138 (and .def_87 (and .def_84 (and .def_81 .def_221))))))))))) (let ((.def_243 (and .def_177 .def_208))) (let ((.def_244 (and .loc.8 .def_243))) (let ((.def_267 (and .loc.7 .def_243))) (let ((.def_269 (and .def_92 (and .loc.9 .def_267)))) (let ((.def_277 (<= 100000 R_28))) (let ((.def_278 (or W_14 .def_277))) (let ((.def_282 (= R_28 .x.621))) (let ((.def_284 (= D_28 .x.607))) (let ((.def_288 (+ M_28 (* 4 R_28)))) (let ((.def_297 (and (not .def_277) (= (+ R_28 (* (- 1) .x.621)) (- 1))))) (let ((.def_317 (and .def_136 (and .def_90 (and .def_138 (and .def_87 (and .def_84 (and .def_81 (and .def_77 .def_284))))))))) (let ((.def_321 (and .def_177 (and .def_141 (and .def_179 (and .def_282 .def_317)))))) (let ((.def_344 (and .def_177 (and .def_141 (and .def_179 (and .def_282 (and .def_136 (and .def_90 (and .def_138 (and .def_87 (and .def_84 (and .def_81 (and .def_221 .def_284))))))))))))) (let ((.def_345 (and .loc.7 .def_344))) (let ((.def_346 (and .loc.8 .def_345))) (let ((.def_359 (and .loc.6 (and .def_177 (and .def_141 (and .def_179 .def_317)))))) (let ((.def_369 (= .x.621 0))) (let ((.def_370 (or W_14 .def_369))) (let ((.def_413 (and .loc.7 .def_359))) (let ((.def_433 (and .loc.7 .def_321))) (and (and (not .loc.10) (and (= K_28 .x.614) (and (= I_28 .x.612) (and (= G_28 .x.610) (and (= E_28 .x.608) (and (= A_28 .x.604) (= C_28 .x.606))))))) (or (and (or (or (or (or (or (or (or (or (or (or (or (or (or (or (or (or (or (or (or (and (or (or (or (or (or (or (and (or (and (or (and (or (and (and (and (and (and (and .def_77 V_28) .def_81) .def_84) .def_87) .def_90) .def_92) (and (or W_14 (and (= .x.619 0) (= .x.605 (store B_28 N_28 0)))) (and (and .loc.6 (or V_28 (= .x.615 .x.619))) .def_103))) (and (and (and (and .loc.7 .loc.15) .def_110) .def_113) .def_116)) (and (or W_14 .def_119) (and .def_38 (and (and .def_103 (and .loc.14 (and .loc.13 (and .loc.12 (and .loc.6 .def_124))))) .def_130)))) (and (and (and .def_136 .def_138) .def_141) .def_144)) (and (or W_14 (and (= .x.618 .x.623) (and (= .x.620 (select .def_151 (+ M_28 (* 4 U_28)))) (and (not .def_155) (= .x.623 (ite (= .x.620 45) 1 0)))))) (and .def_38 (and .def_130 (and .def_103 (and .def_110 (and .loc.14 (and .loc.13 (and .loc.11 (and .def_92 .def_124)))))))))) (and .loc.9 (and .loc.8 (and .def_177 .def_179)))) (and (or V_28 (= (+ U_28 (* (- 1) .x.624)) (- 1))) (and .def_40 (and .def_42 (and .def_38 (and .def_130 (and .def_103 (and .def_110 (and .def_144 (and .loc.14 (and .loc.13 (and .def_92 (and .def_141 .def_190))))))))))))) (and (or W_14 (= .x.624 0)) (and .def_40 (and .def_130 (and .def_103 (and .def_110 (and .def_144 (and .loc.14 (and .loc.13 (and .loc.9 (and .loc.7 (and .loc.6 .def_208)))))))))))) (and .def_38 (and .def_130 (and .def_103 (and .loc.14 (and .loc.13 (and .loc.12 (and .loc.11 (and .def_92 (and .loc.9 (and .loc.8 .def_230))))))))))) (and (or W_14 .def_155) (and .def_38 (and .def_130 (and .def_103 (and .loc.14 (and .loc.13 (and .loc.12 (and .loc.11 (and .def_92 (and .loc.9 .def_244))))))))))) (and .def_40 (and .def_130 (and .def_103 (and .def_113 (and .loc.14 (and .loc.12 (and .loc.11 (and .def_92 (and .loc.9 (and .loc.7 .def_230))))))))))) (and (and .def_40 (and .def_130 (and .def_103 (and .def_113 (and .loc.14 (and .loc.12 (and .loc.11 .def_269))))))) .def_278)) (and .def_282 .def_284)) (and (or W_14 (and (= .x.607 (store D_28 N_28 (store .def_151 .def_288 46))) .def_297)) (and .def_40 (and .def_130 (and .def_103 (and .def_113 (and .def_144 (and .loc.14 (and .loc.12 .def_269))))))))) (and (or W_14 (not .def_119)) (and .def_38 (and .def_130 (and .def_103 (and .def_116 (and .def_113 (and .def_110 (and .def_144 (and .loc.9 (and .loc.8 (and .loc.6 .def_321)))))))))))) (and .def_130 (and .def_103 (and .def_116 (and .def_113 (and .def_110 (and .def_144 (and .def_92 (and .loc.9 .def_346))))))))) (and (and .def_40 (and .def_38 (and .def_130 (and .def_103 (and .def_113 (and .def_144 (and .loc.14 (and .loc.12 (and .loc.9 .def_359))))))))) .def_370)) (and .def_40 (and .def_38 (and .def_130 (and .def_103 (and .def_113 (and .def_110 (and .loc.14 (and .loc.11 (and .def_92 (and .loc.9 .def_344))))))))))) (and .def_278 (and .def_40 (and .def_38 (and .def_130 (and .def_103 (and .def_113 (and .def_110 (and .loc.14 (and .loc.11 (and .def_92 (and .loc.9 .def_321)))))))))))) (and (or W_14 (and .def_297 (= .x.607 (store D_28 N_28 (store .def_151 .def_288 45))))) (and .def_40 (and .def_38 (and .def_130 (and .def_103 (and .def_113 (and .def_110 (and .def_144 (and .loc.14 (and .def_92 (and .loc.9 .def_243)))))))))))) (and .def_370 (and .def_42 (and .def_130 (and .def_103 (and .def_113 (and .def_110 (and .def_144 (and .loc.14 (and .loc.8 .def_413)))))))))) (and .def_42 (and .def_130 (and .def_103 (and .def_116 (and .loc.13 (and .loc.12 (and .loc.11 (and .def_92 .def_346))))))))) (and .def_278 (and .def_42 (and .def_130 (and .def_103 (and .def_116 (and .loc.13 (and .loc.12 (and .loc.11 (and .def_92 (and .loc.8 .def_433))))))))))) (and (or W_14 (and .def_297 (= .x.607 (store D_28 N_28 (store .def_151 .def_288 44))))) (and .def_42 (and .def_130 (and .def_103 (and .def_116 (and .def_144 (and .loc.13 (and .loc.12 (and .def_92 (and .loc.8 .def_267))))))))))) (and .def_370 (and .def_42 (and .def_38 (and .def_130 (and .def_103 (and .def_116 (and .def_144 (and .loc.13 (and .loc.12 (and .loc.8 .def_359))))))))))) (and .def_42 (and .def_38 (and .def_130 (and .def_103 (and .def_116 (and .def_110 (and .loc.13 (and .loc.11 (and .def_92 (and .loc.8 .def_344))))))))))) (and .def_278 (and .def_42 (and .def_38 (and .def_130 (and .def_103 (and .def_116 (and .def_110 (and .loc.13 (and .loc.11 (and .def_92 (and .loc.8 .def_321)))))))))))) (and (or W_14 (and .def_297 (= .x.607 (store D_28 N_28 (store .def_151 .def_288 43))))) (and .def_42 (and .def_38 (and .def_130 (and .def_103 (and .def_116 (and .def_110 (and .def_144 (and .loc.13 (and .def_92 .def_244))))))))))) (and .def_370 (and .def_40 (and .def_42 (and .def_130 (and .def_103 (and .def_116 (and .def_110 (and .def_144 (and .loc.13 .def_413)))))))))) (and .def_40 (and .def_42 (and .def_130 (and .def_103 (and .def_116 (and .def_113 (and .loc.12 (and .loc.11 (and .def_92 .def_345)))))))))) (and .def_278 (and .def_40 (and .def_42 (and .def_130 (and .def_103 (and .def_116 (and .def_113 (and .loc.12 (and .loc.11 (and .def_92 .def_433))))))))))) (and (or W_14 (and .def_297 (= .x.607 (store D_28 N_28 (store .def_151 .def_288 42))))) (and .def_40 (and .def_42 (and .def_130 (and .def_103 (and .def_116 (and .def_113 (and .def_144 (and .loc.12 (and .def_92 .def_267))))))))))) (and (= J_28 .x.613) (and (= F_28 .x.609) (= H_28 .x.611)))) (and (or W_14 (and (and (= .x.613 0) (= .x.609 0)) (= W_0 (store B_28 0 0)))) (and (or V_28 (and (and (and (and (and (and .def_369 (not (<= .x.604 .x.617))) (not (= .x.617 0))) (= .x.616 0)) (= (select W_0 .x.617) 0)) (= .x.611 (store H_28 .x.617 400000))) (= .x.605 (store W_0 .x.617 1)))) (and .def_40 (and .def_42 (and .def_38 (and .def_130 (and .def_103 (and .def_116 (and .def_113 (and .def_144 (and .loc.12 (and .loc.6 (and .def_141 (and .def_138 (and .def_81 .def_284))))))))))))))))))))))))))))))))))))))))))))))))))))))))))))))))))) (state |.x.604| |.x.605| |.x.606| |.x.607| |.x.608| |.x.609| |.x.610| |.x.611| |.x.612| |.x.613| |.x.614| |.x.615| |.x.616| |.x.617| |.x.618| |.x.619| |.x.620| |.x.621| |.x.622| |.x.623| |.x.624| |V_28| |.loc.11| |.loc.12| |.loc.13| |.loc.14| |.loc.15| |.xtv.1|))))
(assert (forall ((|A_28| Int) (|B_28| (Array Int Int)) (|C_28| (Array Int Int)) (|D_28| (Array Int Int)) (|E_28| (Array Int Int)) (|F_28| Int) (|G_28| Int) (|H_28| (Array Int Int)) (|I_28| (Array Int Int)) (|J_28| Int) (|K_28| Int) (|L_28| Int) (|M_28| Int) (|N_28| Int) (|O_28| Int) (|P_28| Int) (|Q_28| Int) (|R_28| Int) (|S_28| Int) (|T_28| Int) (|U_28| Int) (|W_14| Bool) (|.loc.6| Bool) (|.loc.7| Bool) (|.loc.8| Bool) (|.loc.9| Bool) (|.loc.10| Bool) (|W_0| (Array Int Int)) (|.x.614| Int) (|.x.612| (Array Int Int)) (|.x.610| Int) (|.x.608| (Array Int Int)) (|.x.604| Int) (|.x.606| (Array Int Int)) (|.x.605| (Array Int Int)) (|V_28| Bool) (|.x.615| Int) (|.x.616| Int) (|.x.617| Int) (|.x.619| Int) (|.loc.15| Bool) (|.loc.12| Bool) (|.loc.13| Bool) (|.loc.14| Bool) (|.x.620| Int) (|.x.618| Int) (|.x.623| Int) (|.loc.11| Bool) (|.x.624| Int) (|.x.622| Int) (|.x.621| Int) (|.x.607| (Array Int Int)) (|.x.613| Int) (|.x.609| Int) (|.x.611| (Array Int Int)) (|.xtv.1| (Array Int Int))) (=> (state |A_28| |B_28| |C_28| |D_28| |E_28| |F_28| |G_28| |H_28| |I_28| |J_28| |K_28| |L_28| |M_28| |N_28| |O_28| |P_28| |Q_28| |R_28| |S_28| |T_28| |U_28| |W_14| |.loc.6| |.loc.7| |.loc.8| |.loc.9| |.loc.10| |W_0|) (not (and W_14 (and .loc.10 (and (not .loc.9) (and (not .loc.8) (and (not .loc.7) (not .loc.6))))))))))
(check-sat)
